instances/knapsack/knapsack_general/knapsack_20_10_4.lp
\ Model knapsack_20_10_4
\ LP format - for model browsing. Use MPS format to capture full model detail.
\ Signature: 0x22e8651b69cfac24
Minimize
  - 280 y[0] - 782 y[1] - 372 y[2] - 631 y[3] - 618 y[4] - 896 y[5]
   - 875 y[6] - 412 y[7] - 796 y[8] - 746 y[9] - 466 y[10] - 1001 y[11]
   - 165 y[12] - 882 y[13] - 332 y[14] - 692 y[15] - 269 y[16] - 599 y[17]
   - 642 y[18] - 235 y[19]
Subject To
 primal_upper: 180 y[0] + 682 y[1] + 272 y[2] + 531 y[3] + 518 y[4]
   + 796 y[5] + 775 y[6] + 312 y[7] + 696 y[8] + 646 y[9] + 366 y[10]
   + 901 y[11] + 65 y[12] + 782 y[13] + 232 y[14] + 592 y[15] + 169 y[16]
   + 499 y[17] + 542 y[18] + 135 y[19] + 18 z[0] + 68 z[1] + 27 z[2]
   + 53 z[3] + 52 z[4] + 80 z[5] + 78 z[6] + 31 z[7] + 70 z[8] + 65 z[9]
   + 37 z[10] + 90 z[11] + 6 z[12] + 78 z[13] + 23 z[14] + 59 z[15]
   + 17 z[16] + 50 z[17] + 54 z[18] + 14 z[19] <= 1938
 primal_lower0: - 13 y[0] - 11 y[1] - 32 y[2] - 60 y[3] - 17 y[4] - 22 y[5]
   - 68 y[6] - 50 y[7] - 46 y[8] - 41 y[9] - 7 y[10] - 74 y[11] - 26 y[12]
   - 2 y[13] - 60 y[14] - 81 y[15] - 46 y[16] - 48 y[17] - 59 y[18]
   - 56 y[19] + 87 u[0] + 664 u[1] + 912 u[2] + 748 u[3] + 690 u[4]
   + 522 u[5] + 263 u[6] + 338 u[7] + 116 u[8] + 99 u[9] + 997 u[10]
   + 511 u[11] + 213 u[12] + 379 u[13] + 983 u[14] + 377 u[15] + 37 u[16]
   + 616 u[17] + 126 u[18] + 296 u[19] <= 1794
 primal_lower1: - 16 y[0] - y[1] - 7 y[2] - 41 y[3] - 3 y[4] - 17 y[5]
   - 5 y[6] - 4 y[7] - 3 y[8] - 4 y[9] - y[10] - 36 y[11] - 2 y[12]
   - 22 y[13] - 44 y[14] - 10 y[15] - 17 y[16] - y[17] - 14 y[18] - 8 y[19]
   + 440 u[0] + 678 u[1] + 532 u[2] + 207 u[3] + 890 u[4] + 928 u[5]
   + 291 u[6] + 260 u[7] + 948 u[8] + 842 u[9] + 722 u[10] + 673 u[11]
   + 253 u[12] + 66 u[13] + 764 u[14] + 204 u[15] + 757 u[16] + 559 u[17]
   + 794 u[18] + 227 u[19] <= 948
 primal_lower2: - 26 y[0] - 87 y[1] - 198 y[2] - 8 y[3] - 201 y[4]
   - 26 y[5] - 16 y[6] - 34 y[7] - 200 y[8] - 56 y[9] - 21 y[10]
   - 190 y[11] - 116 y[12] - 157 y[13] - 22 y[14] - 165 y[15] - 138 y[16]
   - 76 y[17] - 136 y[18] - 48 y[19] + 376 u[0] + 774 u[1] + 236 u[2]
   + 503 u[3] + 882 u[4] + 680 u[5] + 443 u[6] + 724 u[7] + 924 u[8]
   + 682 u[9] + 218 u[10] + 649 u[11] + 117 u[12] + 2 u[13] + 532 u[14]
   + 644 u[15] + 733 u[16] + 919 u[17] + 426 u[18] + 43 u[19] <= 4202
 primal_lower3: - 71 y[0] - 26 y[1] - 61 y[2] - 81 y[3] - 3 y[4] - 58 y[5]
   - 31 y[6] - 50 y[7] - 50 y[8] - 30 y[9] - 90 y[10] - 27 y[11] - 81 y[12]
   - 55 y[13] - 64 y[14] - 69 y[15] - 40 y[16] - 89 y[17] - 6 y[18]
   - 66 y[19] + 475 u[0] + 164 u[1] + 828 u[2] + 696 u[3] + 686 u[4]
   + 718 u[5] + 67 u[6] + 238 u[7] + 232 u[8] + 671 u[9] + 913 u[10]
   + 891 u[11] + 305 u[12] + 159 u[13] + 179 u[14] + 397 u[15] + 233 u[16]
   + 764 u[17] + 786 u[18] + 556 u[19] <= 1991
 primal_lower4: - 15 y[0] - 35 y[1] - 38 y[2] - 20 y[3] - 4 y[4] - 11 y[5]
   - 37 y[6] - 23 y[7] - 10 y[8] - 34 y[9] - 45 y[10] - 2 y[11] - 39 y[12]
   - 19 y[13] - 40 y[14] - 28 y[15] - 19 y[16] - 34 y[17] - 29 y[18]
   - 27 y[19] + 398 u[0] + 564 u[1] + 82 u[2] + 645 u[3] + 664 u[4]
   + 550 u[5] + 993 u[6] + 530 u[7] + 154 u[8] + 128 u[9] + 208 u[10]
   + 815 u[11] + 995 u[12] + 552 u[13] + 594 u[14] + 874 u[15] + 995 u[16]
   + 125 u[17] + 80 u[18] + 337 u[19] <= 995
 primal_lower5: - 184 y[1] - 183 y[2] - 98 y[3] - 71 y[4] - 41 y[5]
   - 213 y[6] - 154 y[7] - 263 y[8] - 4 y[9] - 287 y[10] - 122 y[11]
   - 248 y[12] - 286 y[13] - 79 y[14] - 163 y[15] - 270 y[16] - 272 y[17]
   - 192 y[18] - 72 y[19] + 771 u[0] + 661 u[1] + 55 u[2] + 862 u[3]
   + 861 u[4] + 247 u[5] + 534 u[6] + 507 u[7] + 111 u[8] + 657 u[9]
   + 853 u[10] + 112 u[11] + 48 u[12] + 721 u[13] + 519 u[14] + 451 u[15]
   + 984 u[16] + 974 u[17] + 813 u[18] + 274 u[19] <= 6609
 primal_lower6: - 49 y[0] - 28 y[1] - 70 y[2] - 64 y[3] - 29 y[4] - 35 y[5]
   - 66 y[6] - 44 y[7] - 21 y[8] - 63 y[9] - 56 y[10] - 98 y[11] - 3 y[12]
   - 39 y[13] - 50 y[14] - 28 y[15] - 94 y[16] - 57 y[17] - 31 y[18]
   - 5 y[19] + 765 u[0] + 263 u[1] + 593 u[2] + 816 u[3] + 23 u[4]
   + 425 u[5] + 696 u[6] + 909 u[7] + 57 u[8] + 147 u[9] + 567 u[10]
   + 882 u[11] + 346 u[12] + 859 u[13] + 433 u[14] + 981 u[15] + 18 u[16]
   + 168 u[17] + 759 u[18] + 980 u[19] <= 2137
 primal_lower7: - 223 y[0] - 219 y[1] - 100 y[2] - 207 y[3] - 8 y[4]
   - 86 y[5] - 59 y[6] - 182 y[7] - 175 y[8] - 167 y[9] - 140 y[10]
   - 54 y[11] - 196 y[12] - 13 y[13] - 11 y[14] - 93 y[15] - 214 y[16]
   - 23 y[17] - 225 y[18] - 24 y[19] + 871 u[0] + 705 u[1] + 395 u[2]
   + 890 u[3] + 489 u[4] + 987 u[5] + 570 u[6] + 543 u[7] + 243 u[8]
   + 365 u[9] + 649 u[10] + 292 u[11] + 644 u[12] + 77 u[13] + 283 u[14]
   + 887 u[15] + 900 u[16] + 738 u[17] + 417 u[18] + 342 u[19] <= 4514
 primal_lower8: - 201 y[0] - 13 y[1] - 141 y[2] - 203 y[3] - 127 y[4]
   - 157 y[5] - 216 y[6] - 65 y[7] - 207 y[8] - 138 y[9] - 31 y[10]
   - 14 y[11] - 154 y[12] - 3 y[13] - 104 y[14] - 6 y[15] - 150 y[16]
   - 107 y[17] - 74 y[18] - 166 y[19] + 342 u[0] + 724 u[1] + 874 u[2]
   + 277 u[3] + 600 u[4] + 654 u[5] + 673 u[6] + 474 u[7] + 594 u[8]
   + 400 u[9] + 536 u[10] + 551 u[11] + 203 u[12] + 328 u[13] + 234 u[14]
   + 938 u[15] + 979 u[16] + 685 u[17] + 632 u[18] + 617 u[19] <= 4526
 primal_lower9: - 12 y[0] - 26 y[1] - 115 y[2] - 145 y[3] - 4 y[4]
   - 89 y[5] - 54 y[6] - 188 y[7] - 134 y[8] - 117 y[9] - 188 y[10]
   - 187 y[11] - 68 y[12] - 94 y[13] - 90 y[14] - 50 y[15] - 74 y[16]
   - 185 y[17] - 72 y[18] - 66 y[19] + 27 u[0] + 733 u[1] + 895 u[2]
   + 846 u[3] + 53 u[4] + 591 u[5] + 606 u[6] + 195 u[7] + 175 u[8]
   + 585 u[9] + 29 u[10] + 552 u[11] + 888 u[12] + 873 u[13] + 631 u[14]
   + 483 u[15] + 552 u[16] + 518 u[17] + 941 u[18] + 210 u[19] <= 4153
 mccormick1[0]: - u[0] + z[0] <= 0
 mccormick1[1]: - u[1] + z[1] <= 0
 mccormick1[2]: - u[2] + z[2] <= 0
 mccormick1[3]: - u[3] + z[3] <= 0
 mccormick1[4]: - u[4] + z[4] <= 0
 mccormick1[5]: - u[5] + z[5] <= 0
 mccormick1[6]: - u[6] + z[6] <= 0
 mccormick1[7]: - u[7] + z[7] <= 0
 mccormick1[8]: - u[8] + z[8] <= 0
 mccormick1[9]: - u[9] + z[9] <= 0
 mccormick1[10]: - u[10] + z[10] <= 0
 mccormick1[11]: - u[11] + z[11] <= 0
 mccormick1[12]: - u[12] + z[12] <= 0
 mccormick1[13]: - u[13] + z[13] <= 0
 mccormick1[14]: - u[14] + z[14] <= 0
 mccormick1[15]: - u[15] + z[15] <= 0
 mccormick1[16]: - u[16] + z[16] <= 0
 mccormick1[17]: - u[17] + z[17] <= 0
 mccormick1[18]: - u[18] + z[18] <= 0
 mccormick1[19]: - u[19] + z[19] <= 0
 mccormick2[0]: - y[0] + z[0] <= 0
 mccormick2[1]: - y[1] + z[1] <= 0
 mccormick2[2]: - y[2] + z[2] <= 0
 mccormick2[3]: - y[3] + z[3] <= 0
 mccormick2[4]: - y[4] + z[4] <= 0
 mccormick2[5]: - y[5] + z[5] <= 0
 mccormick2[6]: - y[6] + z[6] <= 0
 mccormick2[7]: - y[7] + z[7] <= 0
 mccormick2[8]: - y[8] + z[8] <= 0
 mccormick2[9]: - y[9] + z[9] <= 0
 mccormick2[10]: - y[10] + z[10] <= 0
 mccormick2[11]: - y[11] + z[11] <= 0
 mccormick2[12]: - y[12] + z[12] <= 0
 mccormick2[13]: - y[13] + z[13] <= 0
 mccormick2[14]: - y[14] + z[14] <= 0
 mccormick2[15]: - y[15] + z[15] <= 0
 mccormick2[16]: - y[16] + z[16] <= 0
 mccormick2[17]: - y[17] + z[17] <= 0
 mccormick2[18]: - y[18] + z[18] <= 0
 mccormick2[19]: - y[19] + z[19] <= 0
 mccormick3[0]: y[0] + u[0] - z[0] <= 1
 mccormick3[1]: y[1] + u[1] - z[1] <= 1
 mccormick3[2]: y[2] + u[2] - z[2] <= 1
 mccormick3[3]: y[3] + u[3] - z[3] <= 1
 mccormick3[4]: y[4] + u[4] - z[4] <= 1
 mccormick3[5]: y[5] + u[5] - z[5] <= 1
 mccormick3[6]: y[6] + u[6] - z[6] <= 1
 mccormick3[7]: y[7] + u[7] - z[7] <= 1
 mccormick3[8]: y[8] + u[8] - z[8] <= 1
 mccormick3[9]: y[9] + u[9] - z[9] <= 1
 mccormick3[10]: y[10] + u[10] - z[10] <= 1
 mccormick3[11]: y[11] + u[11] - z[11] <= 1
 mccormick3[12]: y[12] + u[12] - z[12] <= 1
 mccormick3[13]: y[13] + u[13] - z[13] <= 1
 mccormick3[14]: y[14] + u[14] - z[14] <= 1
 mccormick3[15]: y[15] + u[15] - z[15] <= 1
 mccormick3[16]: y[16] + u[16] - z[16] <= 1
 mccormick3[17]: y[17] + u[17] - z[17] <= 1
 mccormick3[18]: y[18] + u[18] - z[18] <= 1
 mccormick3[19]: y[19] + u[19] - z[19] <= 1
Bounds
Binaries
 y[0] y[1] y[2] y[3] y[4] y[5] y[6] y[7] y[8] y[9] y[10] y[11] y[12] y[13]
 y[14] y[15] y[16] y[17] y[18] y[19] u[0] u[1] u[2] u[3] u[4] u[5] u[6]
 u[7] u[8] u[9] u[10] u[11] u[12] u[13] u[14] u[15] u[16] u[17] u[18] u[19]
 z[0] z[1] z[2] z[3] z[4] z[5] z[6] z[7] z[8] z[9] z[10] z[11] z[12] z[13]
 z[14] z[15] z[16] z[17] z[18] z[19]
End
