instances/knapsack/knapsack_general/knapsack_20_10_4.mps
* Signature: 0x22e8651b69cfac24
NAME knapsack_20_10_4
ROWS
 N  OBJ
 L  primal_upper
 L  primal_lower0
 L  primal_lower1
 L  primal_lower2
 L  primal_lower3
 L  primal_lower4
 L  primal_lower5
 L  primal_lower6
 L  primal_lower7
 L  primal_lower8
 L  primal_lower9
 L  mccormick1[0]
 L  mccormick1[1]
 L  mccormick1[2]
 L  mccormick1[3]
 L  mccormick1[4]
 L  mccormick1[5]
 L  mccormick1[6]
 L  mccormick1[7]
 L  mccormick1[8]
 L  mccormick1[9]
 L  mccormick1[10]
 L  mccormick1[11]
 L  mccormick1[12]
 L  mccormick1[13]
 L  mccormick1[14]
 L  mccormick1[15]
 L  mccormick1[16]
 L  mccormick1[17]
 L  mccormick1[18]
 L  mccormick1[19]
 L  mccormick2[0]
 L  mccormick2[1]
 L  mccormick2[2]
 L  mccormick2[3]
 L  mccormick2[4]
 L  mccormick2[5]
 L  mccormick2[6]
 L  mccormick2[7]
 L  mccormick2[8]
 L  mccormick2[9]
 L  mccormick2[10]
 L  mccormick2[11]
 L  mccormick2[12]
 L  mccormick2[13]
 L  mccormick2[14]
 L  mccormick2[15]
 L  mccormick2[16]
 L  mccormick2[17]
 L  mccormick2[18]
 L  mccormick2[19]
 L  mccormick3[0]
 L  mccormick3[1]
 L  mccormick3[2]
 L  mccormick3[3]
 L  mccormick3[4]
 L  mccormick3[5]
 L  mccormick3[6]
 L  mccormick3[7]
 L  mccormick3[8]
 L  mccormick3[9]
 L  mccormick3[10]
 L  mccormick3[11]
 L  mccormick3[12]
 L  mccormick3[13]
 L  mccormick3[14]
 L  mccormick3[15]
 L  mccormick3[16]
 L  mccormick3[17]
 L  mccormick3[18]
 L  mccormick3[19]
COLUMNS
    MARKER    'MARKER'                 'INTORG'
    y[0]      OBJ       -280
    y[0]      primal_upper  180
    y[0]      primal_lower0  -13
    y[0]      primal_lower1  -16
    y[0]      primal_lower2  -26
    y[0]      primal_lower3  -71
    y[0]      primal_lower4  -15
    y[0]      primal_lower6  -49
    y[0]      primal_lower7  -223
    y[0]      primal_lower8  -201
    y[0]      primal_lower9  -12
    y[0]      mccormick2[0]  -1
    y[0]      mccormick3[0]  1
    y[1]      OBJ       -782
    y[1]      primal_upper  682
    y[1]      primal_lower0  -11
    y[1]      primal_lower1  -1
    y[1]      primal_lower2  -87
    y[1]      primal_lower3  -26
    y[1]      primal_lower4  -35
    y[1]      primal_lower5  -184
    y[1]      primal_lower6  -28
    y[1]      primal_lower7  -219
    y[1]      primal_lower8  -13
    y[1]      primal_lower9  -26
    y[1]      mccormick2[1]  -1
    y[1]      mccormick3[1]  1
    y[2]      OBJ       -372
    y[2]      primal_upper  272
    y[2]      primal_lower0  -32
    y[2]      primal_lower1  -7
    y[2]      primal_lower2  -198
    y[2]      primal_lower3  -61
    y[2]      primal_lower4  -38
    y[2]      primal_lower5  -183
    y[2]      primal_lower6  -70
    y[2]      primal_lower7  -100
    y[2]      primal_lower8  -141
    y[2]      primal_lower9  -115
    y[2]      mccormick2[2]  -1
    y[2]      mccormick3[2]  1
    y[3]      OBJ       -631
    y[3]      primal_upper  531
    y[3]      primal_lower0  -60
    y[3]      primal_lower1  -41
    y[3]      primal_lower2  -8
    y[3]      primal_lower3  -81
    y[3]      primal_lower4  -20
    y[3]      primal_lower5  -98
    y[3]      primal_lower6  -64
    y[3]      primal_lower7  -207
    y[3]      primal_lower8  -203
    y[3]      primal_lower9  -145
    y[3]      mccormick2[3]  -1
    y[3]      mccormick3[3]  1
    y[4]      OBJ       -618
    y[4]      primal_upper  518
    y[4]      primal_lower0  -17
    y[4]      primal_lower1  -3
    y[4]      primal_lower2  -201
    y[4]      primal_lower3  -3
    y[4]      primal_lower4  -4
    y[4]      primal_lower5  -71
    y[4]      primal_lower6  -29
    y[4]      primal_lower7  -8
    y[4]      primal_lower8  -127
    y[4]      primal_lower9  -4
    y[4]      mccormick2[4]  -1
    y[4]      mccormick3[4]  1
    y[5]      OBJ       -896
    y[5]      primal_upper  796
    y[5]      primal_lower0  -22
    y[5]      primal_lower1  -17
    y[5]      primal_lower2  -26
    y[5]      primal_lower3  -58
    y[5]      primal_lower4  -11
    y[5]      primal_lower5  -41
    y[5]      primal_lower6  -35
    y[5]      primal_lower7  -86
    y[5]      primal_lower8  -157
    y[5]      primal_lower9  -89
    y[5]      mccormick2[5]  -1
    y[5]      mccormick3[5]  1
    y[6]      OBJ       -875
    y[6]      primal_upper  775
    y[6]      primal_lower0  -68
    y[6]      primal_lower1  -5
    y[6]      primal_lower2  -16
    y[6]      primal_lower3  -31
    y[6]      primal_lower4  -37
    y[6]      primal_lower5  -213
    y[6]      primal_lower6  -66
    y[6]      primal_lower7  -59
    y[6]      primal_lower8  -216
    y[6]      primal_lower9  -54
    y[6]      mccormick2[6]  -1
    y[6]      mccormick3[6]  1
    y[7]      OBJ       -412
    y[7]      primal_upper  312
    y[7]      primal_lower0  -50
    y[7]      primal_lower1  -4
    y[7]      primal_lower2  -34
    y[7]      primal_lower3  -50
    y[7]      primal_lower4  -23
    y[7]      primal_lower5  -154
    y[7]      primal_lower6  -44
    y[7]      primal_lower7  -182
    y[7]      primal_lower8  -65
    y[7]      primal_lower9  -188
    y[7]      mccormick2[7]  -1
    y[7]      mccormick3[7]  1
    y[8]      OBJ       -796
    y[8]      primal_upper  696
    y[8]      primal_lower0  -46
    y[8]      primal_lower1  -3
    y[8]      primal_lower2  -200
    y[8]      primal_lower3  -50
    y[8]      primal_lower4  -10
    y[8]      primal_lower5  -263
    y[8]      primal_lower6  -21
    y[8]      primal_lower7  -175
    y[8]      primal_lower8  -207
    y[8]      primal_lower9  -134
    y[8]      mccormick2[8]  -1
    y[8]      mccormick3[8]  1
    y[9]      OBJ       -746
    y[9]      primal_upper  646
    y[9]      primal_lower0  -41
    y[9]      primal_lower1  -4
    y[9]      primal_lower2  -56
    y[9]      primal_lower3  -30
    y[9]      primal_lower4  -34
    y[9]      primal_lower5  -4
    y[9]      primal_lower6  -63
    y[9]      primal_lower7  -167
    y[9]      primal_lower8  -138
    y[9]      primal_lower9  -117
    y[9]      mccormick2[9]  -1
    y[9]      mccormick3[9]  1
    y[10]     OBJ       -466
    y[10]     primal_upper  366
    y[10]     primal_lower0  -7
    y[10]     primal_lower1  -1
    y[10]     primal_lower2  -21
    y[10]     primal_lower3  -90
    y[10]     primal_lower4  -45
    y[10]     primal_lower5  -287
    y[10]     primal_lower6  -56
    y[10]     primal_lower7  -140
    y[10]     primal_lower8  -31
    y[10]     primal_lower9  -188
    y[10]     mccormick2[10]  -1
    y[10]     mccormick3[10]  1
    y[11]     OBJ       -1001
    y[11]     primal_upper  901
    y[11]     primal_lower0  -74
    y[11]     primal_lower1  -36
    y[11]     primal_lower2  -190
    y[11]     primal_lower3  -27
    y[11]     primal_lower4  -2
    y[11]     primal_lower5  -122
    y[11]     primal_lower6  -98
    y[11]     primal_lower7  -54
    y[11]     primal_lower8  -14
    y[11]     primal_lower9  -187
    y[11]     mccormick2[11]  -1
    y[11]     mccormick3[11]  1
    y[12]     OBJ       -165
    y[12]     primal_upper  65
    y[12]     primal_lower0  -26
    y[12]     primal_lower1  -2
    y[12]     primal_lower2  -116
    y[12]     primal_lower3  -81
    y[12]     primal_lower4  -39
    y[12]     primal_lower5  -248
    y[12]     primal_lower6  -3
    y[12]     primal_lower7  -196
    y[12]     primal_lower8  -154
    y[12]     primal_lower9  -68
    y[12]     mccormick2[12]  -1
    y[12]     mccormick3[12]  1
    y[13]     OBJ       -882
    y[13]     primal_upper  782
    y[13]     primal_lower0  -2
    y[13]     primal_lower1  -22
    y[13]     primal_lower2  -157
    y[13]     primal_lower3  -55
    y[13]     primal_lower4  -19
    y[13]     primal_lower5  -286
    y[13]     primal_lower6  -39
    y[13]     primal_lower7  -13
    y[13]     primal_lower8  -3
    y[13]     primal_lower9  -94
    y[13]     mccormick2[13]  -1
    y[13]     mccormick3[13]  1
    y[14]     OBJ       -332
    y[14]     primal_upper  232
    y[14]     primal_lower0  -60
    y[14]     primal_lower1  -44
    y[14]     primal_lower2  -22
    y[14]     primal_lower3  -64
    y[14]     primal_lower4  -40
    y[14]     primal_lower5  -79
    y[14]     primal_lower6  -50
    y[14]     primal_lower7  -11
    y[14]     primal_lower8  -104
    y[14]     primal_lower9  -90
    y[14]     mccormick2[14]  -1
    y[14]     mccormick3[14]  1
    y[15]     OBJ       -692
    y[15]     primal_upper  592
    y[15]     primal_lower0  -81
    y[15]     primal_lower1  -10
    y[15]     primal_lower2  -165
    y[15]     primal_lower3  -69
    y[15]     primal_lower4  -28
    y[15]     primal_lower5  -163
    y[15]     primal_lower6  -28
    y[15]     primal_lower7  -93
    y[15]     primal_lower8  -6
    y[15]     primal_lower9  -50
    y[15]     mccormick2[15]  -1
    y[15]     mccormick3[15]  1
    y[16]     OBJ       -269
    y[16]     primal_upper  169
    y[16]     primal_lower0  -46
    y[16]     primal_lower1  -17
    y[16]     primal_lower2  -138
    y[16]     primal_lower3  -40
    y[16]     primal_lower4  -19
    y[16]     primal_lower5  -270
    y[16]     primal_lower6  -94
    y[16]     primal_lower7  -214
    y[16]     primal_lower8  -150
    y[16]     primal_lower9  -74
    y[16]     mccormick2[16]  -1
    y[16]     mccormick3[16]  1
    y[17]     OBJ       -599
    y[17]     primal_upper  499
    y[17]     primal_lower0  -48
    y[17]     primal_lower1  -1
    y[17]     primal_lower2  -76
    y[17]     primal_lower3  -89
    y[17]     primal_lower4  -34
    y[17]     primal_lower5  -272
    y[17]     primal_lower6  -57
    y[17]     primal_lower7  -23
    y[17]     primal_lower8  -107
    y[17]     primal_lower9  -185
    y[17]     mccormick2[17]  -1
    y[17]     mccormick3[17]  1
    y[18]     OBJ       -642
    y[18]     primal_upper  542
    y[18]     primal_lower0  -59
    y[18]     primal_lower1  -14
    y[18]     primal_lower2  -136
    y[18]     primal_lower3  -6
    y[18]     primal_lower4  -29
    y[18]     primal_lower5  -192
    y[18]     primal_lower6  -31
    y[18]     primal_lower7  -225
    y[18]     primal_lower8  -74
    y[18]     primal_lower9  -72
    y[18]     mccormick2[18]  -1
    y[18]     mccormick3[18]  1
    y[19]     OBJ       -235
    y[19]     primal_upper  135
    y[19]     primal_lower0  -56
    y[19]     primal_lower1  -8
    y[19]     primal_lower2  -48
    y[19]     primal_lower3  -66
    y[19]     primal_lower4  -27
    y[19]     primal_lower5  -72
    y[19]     primal_lower6  -5
    y[19]     primal_lower7  -24
    y[19]     primal_lower8  -166
    y[19]     primal_lower9  -66
    y[19]     mccormick2[19]  -1
    y[19]     mccormick3[19]  1
    u[0]      primal_lower0  87
    u[0]      primal_lower1  440
    u[0]      primal_lower2  376
    u[0]      primal_lower3  475
    u[0]      primal_lower4  398
    u[0]      primal_lower5  771
    u[0]      primal_lower6  765
    u[0]      primal_lower7  871
    u[0]      primal_lower8  342
    u[0]      primal_lower9  27
    u[0]      mccormick1[0]  -1
    u[0]      mccormick3[0]  1
    u[1]      primal_lower0  664
    u[1]      primal_lower1  678
    u[1]      primal_lower2  774
    u[1]      primal_lower3  164
    u[1]      primal_lower4  564
    u[1]      primal_lower5  661
    u[1]      primal_lower6  263
    u[1]      primal_lower7  705
    u[1]      primal_lower8  724
    u[1]      primal_lower9  733
    u[1]      mccormick1[1]  -1
    u[1]      mccormick3[1]  1
    u[2]      primal_lower0  912
    u[2]      primal_lower1  532
    u[2]      primal_lower2  236
    u[2]      primal_lower3  828
    u[2]      primal_lower4  82
    u[2]      primal_lower5  55
    u[2]      primal_lower6  593
    u[2]      primal_lower7  395
    u[2]      primal_lower8  874
    u[2]      primal_lower9  895
    u[2]      mccormick1[2]  -1
    u[2]      mccormick3[2]  1
    u[3]      primal_lower0  748
    u[3]      primal_lower1  207
    u[3]      primal_lower2  503
    u[3]      primal_lower3  696
    u[3]      primal_lower4  645
    u[3]      primal_lower5  862
    u[3]      primal_lower6  816
    u[3]      primal_lower7  890
    u[3]      primal_lower8  277
    u[3]      primal_lower9  846
    u[3]      mccormick1[3]  -1
    u[3]      mccormick3[3]  1
    u[4]      primal_lower0  690
    u[4]      primal_lower1  890
    u[4]      primal_lower2  882
    u[4]      primal_lower3  686
    u[4]      primal_lower4  664
    u[4]      primal_lower5  861
    u[4]      primal_lower6  23
    u[4]      primal_lower7  489
    u[4]      primal_lower8  600
    u[4]      primal_lower9  53
    u[4]      mccormick1[4]  -1
    u[4]      mccormick3[4]  1
    u[5]      primal_lower0  522
    u[5]      primal_lower1  928
    u[5]      primal_lower2  680
    u[5]      primal_lower3  718
    u[5]      primal_lower4  550
    u[5]      primal_lower5  247
    u[5]      primal_lower6  425
    u[5]      primal_lower7  987
    u[5]      primal_lower8  654
    u[5]      primal_lower9  591
    u[5]      mccormick1[5]  -1
    u[5]      mccormick3[5]  1
    u[6]      primal_lower0  263
    u[6]      primal_lower1  291
    u[6]      primal_lower2  443
    u[6]      primal_lower3  67
    u[6]      primal_lower4  993
    u[6]      primal_lower5  534
    u[6]      primal_lower6  696
    u[6]      primal_lower7  570
    u[6]      primal_lower8  673
    u[6]      primal_lower9  606
    u[6]      mccormick1[6]  -1
    u[6]      mccormick3[6]  1
    u[7]      primal_lower0  338
    u[7]      primal_lower1  260
    u[7]      primal_lower2  724
    u[7]      primal_lower3  238
    u[7]      primal_lower4  530
    u[7]      primal_lower5  507
    u[7]      primal_lower6  909
    u[7]      primal_lower7  543
    u[7]      primal_lower8  474
    u[7]      primal_lower9  195
    u[7]      mccormick1[7]  -1
    u[7]      mccormick3[7]  1
    u[8]      primal_lower0  116
    u[8]      primal_lower1  948
    u[8]      primal_lower2  924
    u[8]      primal_lower3  232
    u[8]      primal_lower4  154
    u[8]      primal_lower5  111
    u[8]      primal_lower6  57
    u[8]      primal_lower7  243
    u[8]      primal_lower8  594
    u[8]      primal_lower9  175
    u[8]      mccormick1[8]  -1
    u[8]      mccormick3[8]  1
    u[9]      primal_lower0  99
    u[9]      primal_lower1  842
    u[9]      primal_lower2  682
    u[9]      primal_lower3  671
    u[9]      primal_lower4  128
    u[9]      primal_lower5  657
    u[9]      primal_lower6  147
    u[9]      primal_lower7  365
    u[9]      primal_lower8  400
    u[9]      primal_lower9  585
    u[9]      mccormick1[9]  -1
    u[9]      mccormick3[9]  1
    u[10]     primal_lower0  997
    u[10]     primal_lower1  722
    u[10]     primal_lower2  218
    u[10]     primal_lower3  913
    u[10]     primal_lower4  208
    u[10]     primal_lower5  853
    u[10]     primal_lower6  567
    u[10]     primal_lower7  649
    u[10]     primal_lower8  536
    u[10]     primal_lower9  29
    u[10]     mccormick1[10]  -1
    u[10]     mccormick3[10]  1
    u[11]     primal_lower0  511
    u[11]     primal_lower1  673
    u[11]     primal_lower2  649
    u[11]     primal_lower3  891
    u[11]     primal_lower4  815
    u[11]     primal_lower5  112
    u[11]     primal_lower6  882
    u[11]     primal_lower7  292
    u[11]     primal_lower8  551
    u[11]     primal_lower9  552
    u[11]     mccormick1[11]  -1
    u[11]     mccormick3[11]  1
    u[12]     primal_lower0  213
    u[12]     primal_lower1  253
    u[12]     primal_lower2  117
    u[12]     primal_lower3  305
    u[12]     primal_lower4  995
    u[12]     primal_lower5  48
    u[12]     primal_lower6  346
    u[12]     primal_lower7  644
    u[12]     primal_lower8  203
    u[12]     primal_lower9  888
    u[12]     mccormick1[12]  -1
    u[12]     mccormick3[12]  1
    u[13]     primal_lower0  379
    u[13]     primal_lower1  66
    u[13]     primal_lower2  2
    u[13]     primal_lower3  159
    u[13]     primal_lower4  552
    u[13]     primal_lower5  721
    u[13]     primal_lower6  859
    u[13]     primal_lower7  77
    u[13]     primal_lower8  328
    u[13]     primal_lower9  873
    u[13]     mccormick1[13]  -1
    u[13]     mccormick3[13]  1
    u[14]     primal_lower0  983
    u[14]     primal_lower1  764
    u[14]     primal_lower2  532
    u[14]     primal_lower3  179
    u[14]     primal_lower4  594
    u[14]     primal_lower5  519
    u[14]     primal_lower6  433
    u[14]     primal_lower7  283
    u[14]     primal_lower8  234
    u[14]     primal_lower9  631
    u[14]     mccormick1[14]  -1
    u[14]     mccormick3[14]  1
    u[15]     primal_lower0  377
    u[15]     primal_lower1  204
    u[15]     primal_lower2  644
    u[15]     primal_lower3  397
    u[15]     primal_lower4  874
    u[15]     primal_lower5  451
    u[15]     primal_lower6  981
    u[15]     primal_lower7  887
    u[15]     primal_lower8  938
    u[15]     primal_lower9  483
    u[15]     mccormick1[15]  -1
    u[15]     mccormick3[15]  1
    u[16]     primal_lower0  37
    u[16]     primal_lower1  757
    u[16]     primal_lower2  733
    u[16]     primal_lower3  233
    u[16]     primal_lower4  995
    u[16]     primal_lower5  984
    u[16]     primal_lower6  18
    u[16]     primal_lower7  900
    u[16]     primal_lower8  979
    u[16]     primal_lower9  552
    u[16]     mccormick1[16]  -1
    u[16]     mccormick3[16]  1
    u[17]     primal_lower0  616
    u[17]     primal_lower1  559
    u[17]     primal_lower2  919
    u[17]     primal_lower3  764
    u[17]     primal_lower4  125
    u[17]     primal_lower5  974
    u[17]     primal_lower6  168
    u[17]     primal_lower7  738
    u[17]     primal_lower8  685
    u[17]     primal_lower9  518
    u[17]     mccormick1[17]  -1
    u[17]     mccormick3[17]  1
    u[18]     primal_lower0  126
    u[18]     primal_lower1  794
    u[18]     primal_lower2  426
    u[18]     primal_lower3  786
    u[18]     primal_lower4  80
    u[18]     primal_lower5  813
    u[18]     primal_lower6  759
    u[18]     primal_lower7  417
    u[18]     primal_lower8  632
    u[18]     primal_lower9  941
    u[18]     mccormick1[18]  -1
    u[18]     mccormick3[18]  1
    u[19]     primal_lower0  296
    u[19]     primal_lower1  227
    u[19]     primal_lower2  43
    u[19]     primal_lower3  556
    u[19]     primal_lower4  337
    u[19]     primal_lower5  274
    u[19]     primal_lower6  980
    u[19]     primal_lower7  342
    u[19]     primal_lower8  617
    u[19]     primal_lower9  210
    u[19]     mccormick1[19]  -1
    u[19]     mccormick3[19]  1
    z[0]      primal_upper  18
    z[0]      mccormick1[0]  1
    z[0]      mccormick2[0]  1
    z[0]      mccormick3[0]  -1
    z[1]      primal_upper  68
    z[1]      mccormick1[1]  1
    z[1]      mccormick2[1]  1
    z[1]      mccormick3[1]  -1
    z[2]      primal_upper  27
    z[2]      mccormick1[2]  1
    z[2]      mccormick2[2]  1
    z[2]      mccormick3[2]  -1
    z[3]      primal_upper  53
    z[3]      mccormick1[3]  1
    z[3]      mccormick2[3]  1
    z[3]      mccormick3[3]  -1
    z[4]      primal_upper  52
    z[4]      mccormick1[4]  1
    z[4]      mccormick2[4]  1
    z[4]      mccormick3[4]  -1
    z[5]      primal_upper  80
    z[5]      mccormick1[5]  1
    z[5]      mccormick2[5]  1
    z[5]      mccormick3[5]  -1
    z[6]      primal_upper  78
    z[6]      mccormick1[6]  1
    z[6]      mccormick2[6]  1
    z[6]      mccormick3[6]  -1
    z[7]      primal_upper  31
    z[7]      mccormick1[7]  1
    z[7]      mccormick2[7]  1
    z[7]      mccormick3[7]  -1
    z[8]      primal_upper  70
    z[8]      mccormick1[8]  1
    z[8]      mccormick2[8]  1
    z[8]      mccormick3[8]  -1
    z[9]      primal_upper  65
    z[9]      mccormick1[9]  1
    z[9]      mccormick2[9]  1
    z[9]      mccormick3[9]  -1
    z[10]     primal_upper  37
    z[10]     mccormick1[10]  1
    z[10]     mccormick2[10]  1
    z[10]     mccormick3[10]  -1
    z[11]     primal_upper  90
    z[11]     mccormick1[11]  1
    z[11]     mccormick2[11]  1
    z[11]     mccormick3[11]  -1
    z[12]     primal_upper  6
    z[12]     mccormick1[12]  1
    z[12]     mccormick2[12]  1
    z[12]     mccormick3[12]  -1
    z[13]     primal_upper  78
    z[13]     mccormick1[13]  1
    z[13]     mccormick2[13]  1
    z[13]     mccormick3[13]  -1
    z[14]     primal_upper  23
    z[14]     mccormick1[14]  1
    z[14]     mccormick2[14]  1
    z[14]     mccormick3[14]  -1
    z[15]     primal_upper  59
    z[15]     mccormick1[15]  1
    z[15]     mccormick2[15]  1
    z[15]     mccormick3[15]  -1
    z[16]     primal_upper  17
    z[16]     mccormick1[16]  1
    z[16]     mccormick2[16]  1
    z[16]     mccormick3[16]  -1
    z[17]     primal_upper  50
    z[17]     mccormick1[17]  1
    z[17]     mccormick2[17]  1
    z[17]     mccormick3[17]  -1
    z[18]     primal_upper  54
    z[18]     mccormick1[18]  1
    z[18]     mccormick2[18]  1
    z[18]     mccormick3[18]  -1
    z[19]     primal_upper  14
    z[19]     mccormick1[19]  1
    z[19]     mccormick2[19]  1
    z[19]     mccormick3[19]  -1
    MARKER    'MARKER'                 'INTEND'
RHS
    RHS1      primal_upper  1938
    RHS1      primal_lower0  1794
    RHS1      primal_lower1  948
    RHS1      primal_lower2  4202
    RHS1      primal_lower3  1991
    RHS1      primal_lower4  995
    RHS1      primal_lower5  6609
    RHS1      primal_lower6  2137
    RHS1      primal_lower7  4514
    RHS1      primal_lower8  4526
    RHS1      primal_lower9  4153
    RHS1      mccormick3[0]  1
    RHS1      mccormick3[1]  1
    RHS1      mccormick3[2]  1
    RHS1      mccormick3[3]  1
    RHS1      mccormick3[4]  1
    RHS1      mccormick3[5]  1
    RHS1      mccormick3[6]  1
    RHS1      mccormick3[7]  1
    RHS1      mccormick3[8]  1
    RHS1      mccormick3[9]  1
    RHS1      mccormick3[10]  1
    RHS1      mccormick3[11]  1
    RHS1      mccormick3[12]  1
    RHS1      mccormick3[13]  1
    RHS1      mccormick3[14]  1
    RHS1      mccormick3[15]  1
    RHS1      mccormick3[16]  1
    RHS1      mccormick3[17]  1
    RHS1      mccormick3[18]  1
    RHS1      mccormick3[19]  1
BOUNDS
 BV BND1      y[0]    
 BV BND1      y[1]    
 BV BND1      y[2]    
 BV BND1      y[3]    
 BV BND1      y[4]    
 BV BND1      y[5]    
 BV BND1      y[6]    
 BV BND1      y[7]    
 BV BND1      y[8]    
 BV BND1      y[9]    
 BV BND1      y[10]   
 BV BND1      y[11]   
 BV BND1      y[12]   
 BV BND1      y[13]   
 BV BND1      y[14]   
 BV BND1      y[15]   
 BV BND1      y[16]   
 BV BND1      y[17]   
 BV BND1      y[18]   
 BV BND1      y[19]   
 BV BND1      u[0]    
 BV BND1      u[1]    
 BV BND1      u[2]    
 BV BND1      u[3]    
 BV BND1      u[4]    
 BV BND1      u[5]    
 BV BND1      u[6]    
 BV BND1      u[7]    
 BV BND1      u[8]    
 BV BND1      u[9]    
 BV BND1      u[10]   
 BV BND1      u[11]   
 BV BND1      u[12]   
 BV BND1      u[13]   
 BV BND1      u[14]   
 BV BND1      u[15]   
 BV BND1      u[16]   
 BV BND1      u[17]   
 BV BND1      u[18]   
 BV BND1      u[19]   
 BV BND1      z[0]    
 BV BND1      z[1]    
 BV BND1      z[2]    
 BV BND1      z[3]    
 BV BND1      z[4]    
 BV BND1      z[5]    
 BV BND1      z[6]    
 BV BND1      z[7]    
 BV BND1      z[8]    
 BV BND1      z[9]    
 BV BND1      z[10]   
 BV BND1      z[11]   
 BV BND1      z[12]   
 BV BND1      z[13]   
 BV BND1      z[14]   
 BV BND1      z[15]   
 BV BND1      z[16]   
 BV BND1      z[17]   
 BV BND1      z[18]   
 BV BND1      z[19]   
ENDATA
